51	3

10	10	10	

0	0	0	0	3	2	4	5	
4	3	5	2	2	3	6	
8	4	1	4	2	8	14	
3	5	4	3	2	6	7	
2	5	2	2	2	6	9	
2	5	5	4	2	8	10	
2	2	4	4	2	8	15	
2	3	2	2	2	11	12	
3	3	5	2	2	14	15	
2	3	3	2	1	12	
1	5	5	4	2	13	21	
4	1	4	4	1	19	
2	3	2	3	2	16	24	
2	3	2	4	1	17	
2	4	1	4	1	18	
6	1	0	4	1	23	
2	2	2	2	1	20	
1	1	5	4	1	20	
2	2	4	6	1	22	
1	4	5	4	1	22	
3	5	3	3	2	24	25	
6	3	2	1	1	26	
7	2	2	2	1	27	
3	1	6	2	1	26	
3	2	2	1	1	26	
3	0	1	3	3	27	29	30	
4	3	5	2	2	28	31	
8	4	1	4	2	33	39	
3	5	4	3	2	31	32	
2	5	2	2	2	31	34	
2	5	5	4	2	33	35	
2	2	4	4	2	33	40	
2	3	2	2	2	36	37	
3	3	5	2	2	39	40	
2	3	3	2	1	37	
1	5	5	4	2	38	46	
4	1	4	4	1	44	
2	3	2	3	2	41	49	
2	3	2	4	1	42	
2	4	1	4	1	43	
6	1	0	4	1	48	
2	2	2	2	1	45	
1	1	5	4	1	45	
2	2	4	6	1	47	
1	4	5	4	1	47	
3	5	3	3	2	49	50	
6	3	2	1	1	51	
7	2	2	2	1	51	
3	1	6	2	1	51	
3	2	2	1	1	51	
0	0	0	0	0	
